Grasp exp. instance_n_15_m_5_id_2.lp tipoLifted 0 szPool 5 nIteration 50 alpha 0.8 
Academic license - for non-commercial use only
Read LP format model from file ../input/instancesGenerated/instance_n_15_m_5_id_2.lp
Reading time = 0.00 seconds
: 5 rows, 15 columns, 75 nonzeros
Optimize a model with 5 rows, 15 columns and 75 nonzeros
Variable types: 0 continuous, 15 integer (15 binary)
Coefficient statistics:
  Matrix range     [1e+00, 1e+01]
  Objective range  [1e+00, 1e+01]
  Bounds range     [1e+00, 1e+00]
  RHS range        [4e+01, 5e+01]
Found heuristic solution: objective 36.0000000

Explored 0 nodes (0 simplex iterations) in 0.00 seconds
Thread count was 1 (of 8 available processors)

Solution count 1: 36 
No other solutions better than 0

Solution limit reached
Best objective 3.600000000000e+01, best bound -, gap -
C_1:	 6.00 x_1  = 1.000000 + 6.00 x_2  = 0.000000 + 1.00 x_3  = 0.000000 + 4.00 x_4  = 1.000000 + 5.00 x_5  = 0.101545 + 9.00 x_6  = 0.253863 + 9.00 x_7  = 0.112583 + 2.00 x_8  = 1.000000 + 4.00 x_9  = 0.000000 + 1.00 x_10  = 1.000000 + 6.00 x_11  = 1.000000 + 2.00 x_12  = 0.000000 + 7.00 x_13  = 1.000000 + 8.00 x_14  = 0.024283 + 9.00 x_15  = 1.000000 <= 39.00
C_2:	 4.00 x_1  = 1.000000 + 9.00 x_2  = 0.000000 + 2.00 x_3  = 0.000000 + 7.00 x_4  = 1.000000 + 8.00 x_5  = 0.101545 + 7.00 x_6  = 0.253863 + 3.00 x_7  = 0.112583 + 7.00 x_8  = 1.000000 + 7.00 x_9  = 0.000000 + 10.00 x_10  = 1.000000 + 6.00 x_11  = 1.000000 + 5.00 x_12  = 0.000000 + 2.00 x_13  = 1.000000 + 3.00 x_14  = 0.024283 + 1.00 x_15  = 1.000000 <= 40.00
C_3:	 8.00 x_1  = 1.000000 + 9.00 x_2  = 0.000000 + 8.00 x_3  = 0.000000 + 1.00 x_4  = 1.000000 + 4.00 x_5  = 0.101545 + 2.00 x_6  = 0.253863 + 9.00 x_7  = 0.112583 + 5.00 x_8  = 1.000000 + 5.00 x_9  = 0.000000 + 4.00 x_10  = 1.000000 + 5.00 x_11  = 1.000000 + 3.00 x_12  = 0.000000 + 5.00 x_13  = 1.000000 + 3.00 x_14  = 0.024283 + 10.00 x_15  = 1.000000 <= 40.00
C_4:	 6.00 x_1  = 1.000000 + 7.00 x_2  = 0.000000 + 8.00 x_3  = 0.000000 + 7.00 x_4  = 1.000000 + 3.00 x_5  = 0.101545 + 7.00 x_6  = 0.253863 + 6.00 x_7  = 0.112583 + 7.00 x_8  = 1.000000 + 5.00 x_9  = 0.000000 + 2.00 x_10  = 1.000000 + 9.00 x_11  = 1.000000 + 1.00 x_12  = 0.000000 + 7.00 x_13  = 1.000000 + 10.00 x_14  = 0.024283 + 3.00 x_15  = 1.000000 <= 44.00
C_5:	 9.00 x_1  = 1.000000 + 9.00 x_2  = 0.000000 + 3.00 x_3  = 0.000000 + 7.00 x_4  = 1.000000 + 9.00 x_5  = 0.101545 + 9.00 x_6  = 0.253863 + 10.00 x_7  = 0.112583 + 10.00 x_8  = 1.000000 + 3.00 x_9  = 0.000000 + 7.00 x_10  = 1.000000 + 3.00 x_11  = 1.000000 + 9.00 x_12  = 0.000000 + 9.00 x_13  = 1.000000 + 10.00 x_14  = 0.024283 + 1.00 x_15  = 1.000000 <= 54.00
Solution initial: 64.344371 
Number Constraints Used in Cover:5
GRASP Method!
Number cuts repeat: 0
value: 63.920306
Number Constraints Used in Cover:11
GRASP Method!
Number cuts repeat: 0
value: 63.920306
Number Constraints Used in Cover:18
GRASP Method!
Number cuts repeat: 0
value: 63.920306
Number Constraints Used in Cover:25
GRASP Method!
Number cuts repeat: 0
value: 63.920306
Number Constraints Used in Cover:33
GRASP Method!
Number cuts repeat: 0
value: 63.920306
Number Constraints Used in Cover:45
GRASP Method!
Number cuts repeat: 0
value: 63.920306
Number Constraints Used in Cover:50
GRASP Method!
Number cuts repeat: 0
value: 63.920306
Number Constraints Used in Cover:66
GRASP Method!
Number cuts repeat: 0
value: 63.920306
Number Constraints Used in Cover:82
GRASP Method!
Number cuts repeat: 0
value: 63.920306
Number Constraints Used in Cover:89
GRASP Method!
Number cuts repeat: 0
value: 63.920306
Number Constraints Used in Cover:99
GRASP Method!
Number cuts repeat: 0
value: 63.920306
Number Constraints Used in Cover:110
GRASP Method!
Number cuts repeat: 0
value: 63.920306
Number Constraints Used in Cover:118
GRASP Method!
Number cuts repeat: 0
value: 63.920306
Number Constraints Used in Cover:126
GRASP Method!
Number cuts repeat: 0
value: 63.920306
Number Constraints Used in Cover:140
GRASP Method!
Number cuts repeat: 0
value: 63.920306
Number Constraints Used in Cover:143
GRASP Method!
Number cuts repeat: 0
value: 63.920306
Number Constraints Used in Cover:148
GRASP Method!
Number cuts repeat: 0
value: 63.920306
Number Constraints Used in Cover:150
GRASP Method!
Number cuts repeat: 0
value: 63.920306
Number Constraints Used in Cover:157
GRASP Method!
Number cuts repeat: 0
value: 63.920306
Number Constraints Used in Cover:165
GRASP Method!
Number cuts repeat: 0
value: 63.920306
Number Constraints Used in Cover:180
GRASP Method!
Number cuts repeat: 0
value: 63.920306
Number Constraints Used in Cover:189
GRASP Method!
Number cuts repeat: 0
value: 63.920306
Number Constraints Used in Cover:195
GRASP Method!
Number cuts repeat: 0
value: 63.920306
Number Constraints Used in Cover:198
GRASP Method!
Number cuts repeat: 0
value: 63.920306
Number Constraints Used in Cover:203
GRASP Method!
Number cuts repeat: 0
value: 63.920306
Number Constraints Used in Cover:209
GRASP Method!
Number cuts repeat: 0
value: 63.920306
Number Constraints Used in Cover:215
GRASP Method!
Number cuts repeat: 0
value: 63.920306
Number Constraints Used in Cover:222
GRASP Method!
Number cuts repeat: 0
value: 63.789567
Number Constraints Used in Cover:227
GRASP Method!
Number cuts repeat: 0
value: 63.789567
Number Constraints Used in Cover:237
GRASP Method!
Number cuts repeat: 0
value: 63.789567
Number Constraints Used in Cover:258
GRASP Method!
Number cuts repeat: 0
value: 63.789567
Number Constraints Used in Cover:276
GRASP Method!
Number cuts repeat: 0
value: 63.789567
Number Constraints Used in Cover:287
GRASP Method!
Number cuts repeat: 0
value: 63.789567
Number Constraints Used in Cover:304
GRASP Method!
Number cuts repeat: 0
value: 63.789567
Number Constraints Used in Cover:312
GRASP Method!
Number cuts repeat: 0
value: 63.789567
Number Constraints Used in Cover:331
GRASP Method!
Number cuts repeat: 0
value: 63.789567
Number Constraints Used in Cover:347
GRASP Method!
Number cuts repeat: 0
value: 63.789567
Number Constraints Used in Cover:368
GRASP Method!
Number cuts repeat: 0
value: 63.789567
Number Constraints Used in Cover:396
GRASP Method!
Number cuts repeat: 0
value: 63.789567
Number Constraints Used in Cover:412
GRASP Method!
Number cuts repeat: 0
value: 63.789567
Number Constraints Used in Cover:434
GRASP Method!
Number cuts repeat: 0
value: 63.789567
Number Constraints Used in Cover:452
GRASP Method!
Number cuts repeat: 0
value: 63.789567
Number Constraints Used in Cover:471
GRASP Method!
Number cuts repeat: 0
value: 63.789567
Number Constraints Used in Cover:490
GRASP Method!
Number cuts repeat: 0
value: 63.789567
Number Constraints Used in Cover:516
GRASP Method!
Number cuts repeat: 0
value: 63.789567
Number Constraints Used in Cover:531
GRASP Method!
Number cuts repeat: 0
value: 63.789567
Number Constraints Used in Cover:548
GRASP Method!
Number cuts repeat: 0
value: 63.789567
Number Constraints Used in Cover:559
GRASP Method!
Number cuts repeat: 0
value: 63.789567
Number Constraints Used in Cover:575
GRASP Method!
Number cuts repeat: 0
value: 63.789567
Number Constraints Used in Cover:593
GRASP Method!
Number cuts repeat: 0
value: 63.789567
Number Constraints Used in Cover:614
GRASP Method!
Number cuts repeat: 0
value: 63.789567
Number Constraints Used in Cover:628
GRASP Method!
Number cuts repeat: 0
value: 63.789567
Number Constraints Used in Cover:639
GRASP Method!
Number cuts repeat: 0
value: 63.789567
Number Constraints Used in Cover:658
GRASP Method!
Number cuts repeat: 0
value: 63.789567
Number Constraints Used in Cover:673
GRASP Method!
Number cuts repeat: 0
value: 63.789567
Number Constraints Used in Cover:688
GRASP Method!
Number cuts repeat: 0
value: 63.789567
Number Constraints Used in Cover:705
GRASP Method!
Number cuts repeat: 0
value: 63.789567
Number Constraints Used in Cover:717
GRASP Method!
Number cuts repeat: 0
value: 63.789567
Number Constraints Used in Cover:732
GRASP Method!
Number cuts repeat: 0
value: 63.789567
Number Constraints Used in Cover:744
GRASP Method!
Number cuts repeat: 0
value: 63.789567
Number Constraints Used in Cover:753
GRASP Method!
Number cuts repeat: 0
value: 63.789567
Number Constraints Used in Cover:765
GRASP Method!
Number cuts repeat: 0
value: 63.789567
Number Constraints Used in Cover:779
GRASP Method!
Number cuts repeat: 0
value: 63.789567
Number Constraints Used in Cover:801
GRASP Method!
Number cuts repeat: 0
value: 63.789567
Number Constraints Used in Cover:813
GRASP Method!
Number cuts repeat: 0
value: 63.774890
Number Constraints Used in Cover:822
GRASP Method!
Number cuts repeat: 0
value: 63.774890
Number Cuts Final: 834
